SYSTEM = Standard Relaxation (VASP Wiki Example)
# Electronic Relaxation
ENCUT  = 400
EDIFF  = 1E-5
ISMEAR = 1
SIGMA  = 0.2

# Ionic Relaxation
IBRION = 2
NSW    = 100
EDIFFG = -0.01
ISIF   = 3

# Parallelization
NCORE  = 4
