System
1.0
4.0 0.0 0.0
0.0 4.0 0.0
0.0 0.0 4.0
Fe O
1 1
Direct
0.0 0.0 0.0
0.5 0.5 0.5
